3 
4 
8 
2 
7 
8 
4 
7 
6 
5 
5 
3 
6 
5 
10 
4 
7 
7 
5 
9 
7 
4 
4 
5 
6 
7 
4 
6 
9 
4 
4 
8 
3 
4 
4 
3 
3 
1 
5 
4 
9 
4 
2 
3 
6 
1 
5 
3 
3 
4 
8 
10 
2 
3 
8 
2 
7 
3 
4 
2 
4 
2 
3 
5 
2 
3 
5 
6 
7 
3 
6 
5 
5 
3 
7 
7 
7 
7 
2 
7 
2 
9 
8 
5 
6 
9 
8 
6 
2 
7 
4 
9 
1 
7 
4 
5 
1 
4 
8 
8 
